
Gurobi 7.0.2 (mac64, Python) logging started Wed Apr 12 14:23:57 2017


Gurobi 7.0.2 (mac64, Python) logging started Wed Apr 12 14:23:57 2017


Gurobi 7.0.2 (mac64, Python) logging started Wed Apr 12 14:23:57 2017


Gurobi 7.0.2 (mac64, Python) logging started Wed Apr 12 14:23:57 2017


Gurobi 7.0.2 (mac64, Python) logging started Wed Apr 12 14:23:57 2017


Gurobi 7.0.2 (mac64, Python) logging started Wed Apr 12 14:23:57 2017


Gurobi 7.0.2 (mac64, Python) logging started Wed Apr 12 14:23:57 2017


Gurobi 7.0.2 (mac64, Python) logging started Wed Apr 12 14:23:57 2017


Gurobi 7.0.2 (mac64, Python) logging started Wed Apr 12 14:23:57 2017


Gurobi 7.0.2 (mac64, Python) logging started Wed Apr 12 14:23:57 2017


Gurobi 7.0.2 (mac64, Python) logging started Wed Apr 12 14:23:57 2017


Gurobi 7.0.2 (mac64, Python) logging started Wed Apr 12 14:23:57 2017


Gurobi 7.0.2 (mac64, Python) logging started Wed Apr 12 14:23:57 2017


Gurobi 7.0.2 (mac64, Python) logging started Wed Apr 12 14:23:57 2017


Gurobi 7.0.2 (mac64, Python) logging started Wed Apr 12 14:23:57 2017


Gurobi 7.0.2 (mac64, Python) logging started Wed Apr 12 14:23:57 2017


Gurobi 7.0.2 (mac64, Python) logging started Wed Apr 12 14:23:57 2017


Gurobi 7.0.2 (mac64, Python) logging started Wed Apr 12 14:23:57 2017


Gurobi 7.0.2 (mac64, Python) logging started Wed Apr 12 14:23:57 2017


Gurobi 7.0.2 (mac64, Python) logging started Wed Apr 12 14:23:57 2017


Gurobi 7.0.2 (mac64, Python) logging started Wed Apr 12 14:23:57 2017


Gurobi 7.0.2 (mac64, Python) logging started Wed Apr 12 14:23:57 2017


Gurobi 7.0.2 (mac64, Python) logging started Wed Apr 12 14:23:57 2017


Gurobi 7.0.2 (mac64, Python) logging started Wed Apr 12 14:23:57 2017


Gurobi 7.0.2 (mac64, Python) logging started Wed Apr 12 14:23:57 2017


Gurobi 7.0.2 (mac64, Python) logging started Wed Apr 12 14:23:57 2017


Gurobi 7.0.2 (mac64, Python) logging started Wed Apr 12 14:23:57 2017


Gurobi 7.0.2 (mac64, Python) logging started Wed Apr 12 14:23:57 2017


Gurobi 7.0.2 (mac64, Python) logging started Wed Apr 12 14:23:57 2017


Gurobi 7.0.2 (mac64, Python) logging started Wed Apr 12 14:23:57 2017


Gurobi 7.0.2 (mac64, Python) logging started Wed Apr 12 14:23:57 2017


Gurobi 7.0.2 (mac64, Python) logging started Wed Apr 12 14:23:57 2017


Gurobi 7.0.2 (mac64, Python) logging started Wed Apr 12 14:23:57 2017


Gurobi 7.0.2 (mac64, Python) logging started Wed Apr 12 14:23:57 2017


Gurobi 7.0.2 (mac64, Python) logging started Wed Apr 12 14:23:57 2017


Gurobi 7.0.2 (mac64, Python) logging started Wed Apr 12 14:23:57 2017


Gurobi 7.0.2 (mac64, Python) logging started Wed Apr 12 14:23:57 2017


Gurobi 7.0.2 (mac64, Python) logging started Wed Apr 12 14:23:57 2017


Gurobi 7.0.2 (mac64, Python) logging started Wed Apr 12 14:23:57 2017


Gurobi 7.0.2 (mac64, Python) logging started Wed Apr 12 14:23:57 2017


Gurobi 7.0.2 (mac64, Python) logging started Wed Apr 12 14:23:57 2017


Gurobi 7.0.2 (mac64, Python) logging started Wed Apr 12 14:23:57 2017


Gurobi 7.0.2 (mac64, Python) logging started Wed Apr 12 14:23:57 2017


Gurobi 7.0.2 (mac64, Python) logging started Wed Apr 12 14:23:57 2017


Gurobi 7.0.2 (mac64, Python) logging started Wed Apr 12 14:23:57 2017


Gurobi 7.0.2 (mac64, Python) logging started Wed Apr 12 14:23:57 2017


Gurobi 7.0.2 (mac64, Python) logging started Wed Apr 12 14:23:57 2017


Gurobi 7.0.2 (mac64, Python) logging started Wed Apr 12 14:23:57 2017


Gurobi 7.0.2 (mac64, Python) logging started Wed Apr 12 15:03:53 2017


Gurobi 7.0.2 (mac64, Python) logging started Wed Apr 12 15:04:00 2017


Gurobi 7.0.2 (mac64, Python) logging started Tue Apr 18 16:25:15 2017


Gurobi 7.0.2 (mac64, Python) logging started Tue Apr 18 16:26:23 2017


Gurobi 7.0.2 (mac64, Python) logging started Tue Apr 18 17:10:05 2017


Gurobi 7.0.2 (mac64, Python) logging started Tue Apr 18 17:49:43 2017


Gurobi 7.0.2 (mac64, Python) logging started Tue Apr 18 17:49:51 2017


Gurobi 7.0.2 (mac64, Python) logging started Tue Apr 18 17:55:15 2017


Gurobi 7.0.2 (mac64, Python) logging started Tue Apr 18 18:08:57 2017


Gurobi 7.0.2 (mac64, Python) logging started Tue Apr 18 18:11:55 2017


Gurobi 7.0.2 (mac64, Python) logging started Tue Apr 18 18:13:30 2017


Gurobi 7.0.2 (mac64, Python) logging started Tue Apr 18 18:17:53 2017


Gurobi 7.0.2 (mac64, Python) logging started Tue Apr 18 18:19:00 2017


Gurobi 7.0.2 (mac64, Python) logging started Tue Apr 18 18:20:38 2017


Gurobi 7.0.2 (mac64, Python) logging started Tue Apr 18 18:45:10 2017


Gurobi 7.0.2 (mac64, Python) logging started Tue Apr 18 18:46:16 2017


Gurobi 7.0.2 (mac64, Python) logging started Tue Apr 18 19:13:43 2017


Gurobi 7.0.2 (mac64, Python) logging started Tue Apr 18 19:14:52 2017


Gurobi 7.0.2 (mac64, Python) logging started Tue Apr 18 19:16:19 2017


Gurobi 7.0.2 (mac64, Python) logging started Tue Apr 18 19:21:24 2017


Gurobi 7.0.2 (mac64, Python) logging started Tue Apr 18 19:23:55 2017


Gurobi 7.0.2 (mac64, Python) logging started Tue Apr 18 20:50:04 2017


Gurobi 7.0.2 (mac64, Python) logging started Tue Apr 18 20:50:04 2017


Gurobi 7.0.2 (mac64, Python) logging started Tue Apr 18 20:50:04 2017


Gurobi 7.0.2 (mac64, Python) logging started Tue Apr 18 20:50:04 2017


Gurobi 7.0.2 (mac64, Python) logging started Tue Apr 18 20:50:04 2017


Gurobi 7.0.2 (mac64, Python) logging started Tue Apr 18 20:50:04 2017


Gurobi 7.0.2 (mac64, Python) logging started Tue Apr 18 20:50:04 2017


Gurobi 7.0.2 (mac64, Python) logging started Tue Apr 18 20:50:04 2017


Gurobi 7.0.2 (mac64, Python) logging started Tue Apr 18 20:50:04 2017


Gurobi 7.0.2 (mac64, Python) logging started Tue Apr 18 20:50:04 2017


Gurobi 7.0.2 (mac64, Python) logging started Tue Apr 18 20:50:04 2017


Gurobi 7.0.2 (mac64, Python) logging started Tue Apr 18 20:50:04 2017


Gurobi 7.0.2 (mac64, Python) logging started Tue Apr 18 20:50:04 2017


Gurobi 7.0.2 (mac64, Python) logging started Tue Apr 18 20:50:04 2017


Gurobi 7.0.2 (mac64, Python) logging started Tue Apr 18 20:50:04 2017


Gurobi 7.0.2 (mac64, Python) logging started Tue Apr 18 20:50:04 2017


Gurobi 7.0.2 (mac64, Python) logging started Tue Apr 18 20:50:04 2017


Gurobi 7.0.2 (mac64, Python) logging started Tue Apr 18 20:50:04 2017


Gurobi 7.0.2 (mac64, Python) logging started Tue Apr 18 20:50:04 2017


Gurobi 7.0.2 (mac64, Python) logging started Tue Apr 18 20:50:04 2017


Gurobi 7.0.2 (mac64, Python) logging started Tue Apr 18 20:50:04 2017


Gurobi 7.0.2 (mac64, Python) logging started Tue Apr 18 20:50:04 2017


Gurobi 7.0.2 (mac64, Python) logging started Tue Apr 18 20:50:04 2017


Gurobi 7.0.2 (mac64, Python) logging started Tue Apr 18 20:50:04 2017


Gurobi 7.0.2 (mac64, Python) logging started Tue Apr 18 20:50:04 2017


Gurobi 7.0.2 (mac64, Python) logging started Tue Apr 18 20:50:04 2017


Gurobi 7.0.2 (mac64, Python) logging started Tue Apr 18 20:50:04 2017


Gurobi 7.0.2 (mac64, Python) logging started Tue Apr 18 20:50:04 2017


Gurobi 7.0.2 (mac64, Python) logging started Tue Apr 18 20:50:04 2017


Gurobi 7.0.2 (mac64, Python) logging started Tue Apr 18 20:50:04 2017


Gurobi 7.0.2 (mac64, Python) logging started Tue Apr 18 20:50:04 2017


Gurobi 7.0.2 (mac64, Python) logging started Tue Apr 18 20:50:04 2017


Gurobi 7.0.2 (mac64, Python) logging started Tue Apr 18 20:50:04 2017


Gurobi 7.0.2 (mac64, Python) logging started Tue Apr 18 20:50:04 2017


Gurobi 7.0.2 (mac64, Python) logging started Tue Apr 18 20:50:04 2017


Gurobi 7.0.2 (mac64, Python) logging started Tue Apr 18 20:50:04 2017


Gurobi 7.0.2 (mac64, Python) logging started Tue Apr 18 20:50:04 2017


Gurobi 7.0.2 (mac64, Python) logging started Tue Apr 18 20:50:04 2017


Gurobi 7.0.2 (mac64, Python) logging started Tue Apr 18 20:50:04 2017


Gurobi 7.0.2 (mac64, Python) logging started Tue Apr 18 20:50:04 2017


Gurobi 7.0.2 (mac64, Python) logging started Tue Apr 18 20:50:04 2017


Gurobi 7.0.2 (mac64, Python) logging started Tue Apr 18 20:50:04 2017


Gurobi 7.0.2 (mac64, Python) logging started Tue Apr 18 20:50:04 2017


Gurobi 7.0.2 (mac64, Python) logging started Tue Apr 18 20:50:04 2017


Gurobi 7.0.2 (mac64, Python) logging started Tue Apr 18 20:50:04 2017


Gurobi 7.0.2 (mac64, Python) logging started Tue Apr 18 20:50:04 2017


Gurobi 7.0.2 (mac64, Python) logging started Tue Apr 18 20:50:04 2017


Gurobi 7.0.2 (mac64, Python) logging started Tue Apr 18 20:50:04 2017


Gurobi 7.0.2 (mac64, Python) logging started Tue Apr 18 20:50:24 2017


Gurobi 7.0.2 (mac64, Python) logging started Tue Apr 18 20:50:24 2017


Gurobi 7.0.2 (mac64, Python) logging started Tue Apr 18 20:50:24 2017


Gurobi 7.0.2 (mac64, Python) logging started Tue Apr 18 20:50:24 2017


Gurobi 7.0.2 (mac64, Python) logging started Tue Apr 18 20:50:24 2017


Gurobi 7.0.2 (mac64, Python) logging started Tue Apr 18 20:50:24 2017


Gurobi 7.0.2 (mac64, Python) logging started Tue Apr 18 20:50:24 2017


Gurobi 7.0.2 (mac64, Python) logging started Tue Apr 18 20:50:24 2017


Gurobi 7.0.2 (mac64, Python) logging started Tue Apr 18 20:50:24 2017


Gurobi 7.0.2 (mac64, Python) logging started Tue Apr 18 20:50:24 2017


Gurobi 7.0.2 (mac64, Python) logging started Tue Apr 18 20:50:24 2017


Gurobi 7.0.2 (mac64, Python) logging started Tue Apr 18 20:50:24 2017


Gurobi 7.0.2 (mac64, Python) logging started Tue Apr 18 20:50:24 2017


Gurobi 7.0.2 (mac64, Python) logging started Tue Apr 18 20:50:24 2017


Gurobi 7.0.2 (mac64, Python) logging started Tue Apr 18 20:50:24 2017


Gurobi 7.0.2 (mac64, Python) logging started Tue Apr 18 20:50:24 2017


Gurobi 7.0.2 (mac64, Python) logging started Tue Apr 18 20:50:24 2017


Gurobi 7.0.2 (mac64, Python) logging started Tue Apr 18 20:50:24 2017


Gurobi 7.0.2 (mac64, Python) logging started Tue Apr 18 20:50:24 2017


Gurobi 7.0.2 (mac64, Python) logging started Tue Apr 18 20:50:24 2017


Gurobi 7.0.2 (mac64, Python) logging started Tue Apr 18 20:50:24 2017


Gurobi 7.0.2 (mac64, Python) logging started Tue Apr 18 20:50:24 2017


Gurobi 7.0.2 (mac64, Python) logging started Tue Apr 18 20:50:24 2017


Gurobi 7.0.2 (mac64, Python) logging started Tue Apr 18 20:50:24 2017


Gurobi 7.0.2 (mac64, Python) logging started Tue Apr 18 20:50:24 2017


Gurobi 7.0.2 (mac64, Python) logging started Tue Apr 18 20:50:24 2017


Gurobi 7.0.2 (mac64, Python) logging started Tue Apr 18 20:50:24 2017


Gurobi 7.0.2 (mac64, Python) logging started Tue Apr 18 20:50:24 2017


Gurobi 7.0.2 (mac64, Python) logging started Tue Apr 18 20:50:24 2017


Gurobi 7.0.2 (mac64, Python) logging started Tue Apr 18 20:50:24 2017


Gurobi 7.0.2 (mac64, Python) logging started Tue Apr 18 20:50:24 2017


Gurobi 7.0.2 (mac64, Python) logging started Tue Apr 18 20:50:24 2017


Gurobi 7.0.2 (mac64, Python) logging started Tue Apr 18 20:50:24 2017


Gurobi 7.0.2 (mac64, Python) logging started Tue Apr 18 20:50:24 2017


Gurobi 7.0.2 (mac64, Python) logging started Tue Apr 18 20:50:24 2017


Gurobi 7.0.2 (mac64, Python) logging started Tue Apr 18 20:50:24 2017


Gurobi 7.0.2 (mac64, Python) logging started Tue Apr 18 20:50:24 2017


Gurobi 7.0.2 (mac64, Python) logging started Tue Apr 18 20:50:24 2017


Gurobi 7.0.2 (mac64, Python) logging started Tue Apr 18 20:50:24 2017


Gurobi 7.0.2 (mac64, Python) logging started Tue Apr 18 20:50:24 2017


Gurobi 7.0.2 (mac64, Python) logging started Tue Apr 18 20:50:24 2017


Gurobi 7.0.2 (mac64, Python) logging started Tue Apr 18 20:50:24 2017


Gurobi 7.0.2 (mac64, Python) logging started Tue Apr 18 20:50:24 2017


Gurobi 7.0.2 (mac64, Python) logging started Tue Apr 18 20:50:24 2017


Gurobi 7.0.2 (mac64, Python) logging started Tue Apr 18 20:50:24 2017


Gurobi 7.0.2 (mac64, Python) logging started Tue Apr 18 20:50:24 2017


Gurobi 7.0.2 (mac64, Python) logging started Tue Apr 18 20:50:24 2017


Gurobi 7.0.2 (mac64, Python) logging started Tue Apr 18 20:50:24 2017


Gurobi 7.0.2 (mac64, Python) logging started Tue Apr 18 20:50:55 2017


Gurobi 7.0.2 (mac64, Python) logging started Tue Apr 18 20:51:03 2017


Gurobi 7.0.2 (mac64, Python) logging started Tue Apr 18 20:51:03 2017


Gurobi 7.0.2 (mac64, Python) logging started Tue Apr 18 20:51:03 2017


Gurobi 7.0.2 (mac64, Python) logging started Tue Apr 18 20:51:03 2017


Gurobi 7.0.2 (mac64, Python) logging started Tue Apr 18 20:51:03 2017


Gurobi 7.0.2 (mac64, Python) logging started Tue Apr 18 20:51:03 2017


Gurobi 7.0.2 (mac64, Python) logging started Tue Apr 18 20:51:03 2017


Gurobi 7.0.2 (mac64, Python) logging started Tue Apr 18 20:51:03 2017


Gurobi 7.0.2 (mac64, Python) logging started Tue Apr 18 20:51:03 2017


Gurobi 7.0.2 (mac64, Python) logging started Tue Apr 18 20:51:03 2017


Gurobi 7.0.2 (mac64, Python) logging started Tue Apr 18 20:51:03 2017


Gurobi 7.0.2 (mac64, Python) logging started Tue Apr 18 20:51:03 2017


Gurobi 7.0.2 (mac64, Python) logging started Tue Apr 18 20:51:03 2017


Gurobi 7.0.2 (mac64, Python) logging started Tue Apr 18 20:51:03 2017


Gurobi 7.0.2 (mac64, Python) logging started Tue Apr 18 20:51:03 2017


Gurobi 7.0.2 (mac64, Python) logging started Tue Apr 18 20:51:03 2017


Gurobi 7.0.2 (mac64, Python) logging started Tue Apr 18 20:51:03 2017


Gurobi 7.0.2 (mac64, Python) logging started Tue Apr 18 20:51:03 2017


Gurobi 7.0.2 (mac64, Python) logging started Tue Apr 18 20:51:03 2017


Gurobi 7.0.2 (mac64, Python) logging started Tue Apr 18 20:51:03 2017


Gurobi 7.0.2 (mac64, Python) logging started Tue Apr 18 20:51:03 2017


Gurobi 7.0.2 (mac64, Python) logging started Tue Apr 18 20:51:03 2017


Gurobi 7.0.2 (mac64, Python) logging started Tue Apr 18 20:51:03 2017


Gurobi 7.0.2 (mac64, Python) logging started Tue Apr 18 20:51:03 2017


Gurobi 7.0.2 (mac64, Python) logging started Tue Apr 18 20:51:03 2017


Gurobi 7.0.2 (mac64, Python) logging started Tue Apr 18 20:51:03 2017


Gurobi 7.0.2 (mac64, Python) logging started Tue Apr 18 20:51:03 2017


Gurobi 7.0.2 (mac64, Python) logging started Tue Apr 18 20:51:03 2017


Gurobi 7.0.2 (mac64, Python) logging started Tue Apr 18 20:51:03 2017


Gurobi 7.0.2 (mac64, Python) logging started Tue Apr 18 20:51:03 2017


Gurobi 7.0.2 (mac64, Python) logging started Tue Apr 18 20:51:03 2017


Gurobi 7.0.2 (mac64, Python) logging started Tue Apr 18 20:51:03 2017


Gurobi 7.0.2 (mac64, Python) logging started Tue Apr 18 20:51:03 2017


Gurobi 7.0.2 (mac64, Python) logging started Tue Apr 18 20:51:03 2017


Gurobi 7.0.2 (mac64, Python) logging started Tue Apr 18 20:51:03 2017


Gurobi 7.0.2 (mac64, Python) logging started Tue Apr 18 20:51:03 2017


Gurobi 7.0.2 (mac64, Python) logging started Tue Apr 18 20:51:03 2017


Gurobi 7.0.2 (mac64, Python) logging started Tue Apr 18 20:51:03 2017


Gurobi 7.0.2 (mac64, Python) logging started Tue Apr 18 20:51:03 2017


Gurobi 7.0.2 (mac64, Python) logging started Tue Apr 18 20:51:03 2017


Gurobi 7.0.2 (mac64, Python) logging started Tue Apr 18 20:51:03 2017


Gurobi 7.0.2 (mac64, Python) logging started Tue Apr 18 20:51:03 2017


Gurobi 7.0.2 (mac64, Python) logging started Tue Apr 18 20:51:03 2017


Gurobi 7.0.2 (mac64, Python) logging started Tue Apr 18 20:51:03 2017


Gurobi 7.0.2 (mac64, Python) logging started Tue Apr 18 20:51:03 2017


Gurobi 7.0.2 (mac64, Python) logging started Tue Apr 18 20:51:03 2017


Gurobi 7.0.2 (mac64, Python) logging started Tue Apr 18 20:51:03 2017


Gurobi 7.0.2 (mac64, Python) logging started Tue Apr 18 20:51:03 2017


Gurobi 7.0.2 (mac64, Python) logging started Tue Apr 18 20:51:15 2017


Gurobi 7.0.2 (mac64, Python) logging started Tue Apr 18 20:51:15 2017


Gurobi 7.0.2 (mac64, Python) logging started Tue Apr 18 20:51:15 2017


Gurobi 7.0.2 (mac64, Python) logging started Tue Apr 18 20:51:15 2017


Gurobi 7.0.2 (mac64, Python) logging started Tue Apr 18 20:51:15 2017


Gurobi 7.0.2 (mac64, Python) logging started Tue Apr 18 20:51:15 2017


Gurobi 7.0.2 (mac64, Python) logging started Tue Apr 18 20:51:15 2017


Gurobi 7.0.2 (mac64, Python) logging started Tue Apr 18 20:51:15 2017


Gurobi 7.0.2 (mac64, Python) logging started Tue Apr 18 20:51:15 2017


Gurobi 7.0.2 (mac64, Python) logging started Tue Apr 18 20:51:15 2017


Gurobi 7.0.2 (mac64, Python) logging started Tue Apr 18 20:51:15 2017


Gurobi 7.0.2 (mac64, Python) logging started Tue Apr 18 20:51:15 2017


Gurobi 7.0.2 (mac64, Python) logging started Tue Apr 18 20:51:15 2017


Gurobi 7.0.2 (mac64, Python) logging started Tue Apr 18 20:51:15 2017


Gurobi 7.0.2 (mac64, Python) logging started Tue Apr 18 20:51:15 2017


Gurobi 7.0.2 (mac64, Python) logging started Tue Apr 18 20:51:15 2017


Gurobi 7.0.2 (mac64, Python) logging started Tue Apr 18 20:51:15 2017


Gurobi 7.0.2 (mac64, Python) logging started Tue Apr 18 20:51:15 2017


Gurobi 7.0.2 (mac64, Python) logging started Tue Apr 18 20:51:15 2017


Gurobi 7.0.2 (mac64, Python) logging started Tue Apr 18 20:51:15 2017


Gurobi 7.0.2 (mac64, Python) logging started Tue Apr 18 20:51:15 2017


Gurobi 7.0.2 (mac64, Python) logging started Tue Apr 18 20:51:15 2017


Gurobi 7.0.2 (mac64, Python) logging started Tue Apr 18 20:51:15 2017


Gurobi 7.0.2 (mac64, Python) logging started Tue Apr 18 20:51:15 2017


Gurobi 7.0.2 (mac64, Python) logging started Tue Apr 18 20:51:15 2017


Gurobi 7.0.2 (mac64, Python) logging started Tue Apr 18 20:51:15 2017


Gurobi 7.0.2 (mac64, Python) logging started Tue Apr 18 20:51:15 2017


Gurobi 7.0.2 (mac64, Python) logging started Tue Apr 18 20:51:15 2017


Gurobi 7.0.2 (mac64, Python) logging started Tue Apr 18 20:51:15 2017


Gurobi 7.0.2 (mac64, Python) logging started Tue Apr 18 20:51:15 2017


Gurobi 7.0.2 (mac64, Python) logging started Tue Apr 18 20:51:15 2017


Gurobi 7.0.2 (mac64, Python) logging started Tue Apr 18 20:51:15 2017


Gurobi 7.0.2 (mac64, Python) logging started Tue Apr 18 20:51:15 2017


Gurobi 7.0.2 (mac64, Python) logging started Tue Apr 18 20:51:15 2017


Gurobi 7.0.2 (mac64, Python) logging started Tue Apr 18 20:51:15 2017


Gurobi 7.0.2 (mac64, Python) logging started Tue Apr 18 20:51:15 2017


Gurobi 7.0.2 (mac64, Python) logging started Tue Apr 18 20:51:15 2017


Gurobi 7.0.2 (mac64, Python) logging started Tue Apr 18 20:51:15 2017


Gurobi 7.0.2 (mac64, Python) logging started Tue Apr 18 20:51:15 2017


Gurobi 7.0.2 (mac64, Python) logging started Tue Apr 18 20:51:15 2017


Gurobi 7.0.2 (mac64, Python) logging started Tue Apr 18 20:51:15 2017


Gurobi 7.0.2 (mac64, Python) logging started Tue Apr 18 20:51:15 2017


Gurobi 7.0.2 (mac64, Python) logging started Tue Apr 18 20:51:15 2017


Gurobi 7.0.2 (mac64, Python) logging started Tue Apr 18 20:51:15 2017


Gurobi 7.0.2 (mac64, Python) logging started Tue Apr 18 20:51:15 2017


Gurobi 7.0.2 (mac64, Python) logging started Tue Apr 18 20:51:15 2017


Gurobi 7.0.2 (mac64, Python) logging started Tue Apr 18 20:51:15 2017


Gurobi 7.0.2 (mac64, Python) logging started Tue Apr 18 20:51:15 2017


Gurobi 7.0.2 (mac64, Python) logging started Tue Apr 18 21:00:03 2017


Gurobi 7.0.2 (mac64, Python) logging started Wed Apr 19 09:43:59 2017


Gurobi 7.0.2 (mac64, Python) logging started Wed Apr 19 09:52:41 2017


Gurobi 7.0.2 (mac64, Python) logging started Wed Apr 19 09:55:04 2017


Gurobi 7.0.2 (mac64, Python) logging started Wed Apr 19 09:55:26 2017


Gurobi 7.0.2 (mac64, Python) logging started Wed Apr 19 09:57:19 2017


Gurobi 7.0.2 (mac64, Python) logging started Wed Apr 19 09:58:27 2017


Gurobi 7.0.2 (mac64, Python) logging started Wed Apr 19 09:58:46 2017


Gurobi 7.0.2 (mac64, Python) logging started Wed Apr 19 09:59:21 2017


Gurobi 7.0.2 (mac64, Python) logging started Wed Apr 19 10:02:25 2017


Gurobi 7.0.2 (mac64, Python) logging started Wed Apr 19 10:09:39 2017


Gurobi 7.0.2 (mac64, Python) logging started Wed Apr 19 10:26:12 2017


Gurobi 7.0.2 (mac64, Python) logging started Wed Apr 19 11:15:14 2017


Gurobi 7.0.2 (mac64, Python) logging started Wed Apr 19 11:16:19 2017


Gurobi 7.0.2 (mac64, Python) logging started Wed Apr 19 11:17:38 2017


Gurobi 7.0.2 (mac64, Python) logging started Wed Apr 19 11:17:49 2017


Gurobi 7.0.2 (mac64, Python) logging started Wed Apr 19 11:19:29 2017


Gurobi 7.0.2 (mac64, Python) logging started Wed Apr 19 11:19:37 2017


Gurobi 7.0.2 (mac64, Python) logging started Wed Apr 19 11:20:06 2017


Gurobi 7.0.2 (mac64, Python) logging started Wed Apr 19 11:27:09 2017


Gurobi 7.0.2 (mac64, Python) logging started Wed Apr 19 11:28:30 2017


Gurobi 7.0.2 (mac64, Python) logging started Wed Apr 19 11:45:14 2017


Gurobi 7.0.2 (mac64, Python) logging started Wed Apr 19 11:45:35 2017


Gurobi 7.0.2 (mac64, Python) logging started Wed Apr 19 11:46:32 2017


Gurobi 7.0.2 (mac64, Python) logging started Wed Apr 19 11:47:30 2017


Gurobi 7.0.2 (mac64, Python) logging started Wed Apr 19 11:51:18 2017


Gurobi 7.0.2 (mac64, Python) logging started Wed Apr 19 11:51:27 2017


Gurobi 7.0.2 (mac64, Python) logging started Wed Apr 19 12:06:35 2017


Gurobi 7.0.2 (mac64, Python) logging started Wed Apr 19 12:06:57 2017


Gurobi 7.0.2 (mac64, Python) logging started Wed Apr 19 12:07:24 2017


Gurobi 7.0.2 (mac64, Python) logging started Wed Apr 19 12:08:40 2017


Gurobi 7.0.2 (mac64, Python) logging started Wed Apr 19 12:09:01 2017


Gurobi 7.0.2 (mac64, Python) logging started Wed Apr 19 13:44:27 2017


Gurobi 7.0.2 (mac64, Python) logging started Wed Apr 19 13:45:56 2017


Gurobi 7.0.2 (mac64, Python) logging started Wed Apr 19 13:46:09 2017


Gurobi 7.0.2 (mac64, Python) logging started Wed Apr 19 13:46:45 2017


Gurobi 7.0.2 (mac64, Python) logging started Wed Apr 19 13:47:24 2017


Gurobi 7.0.2 (mac64, Python) logging started Wed Apr 19 13:51:02 2017


Gurobi 7.0.2 (mac64, Python) logging started Wed Apr 19 13:52:07 2017


Gurobi 7.0.2 (mac64, Python) logging started Wed Apr 19 13:53:24 2017


Gurobi 7.0.2 (mac64, Python) logging started Wed Apr 19 13:55:08 2017


Gurobi 7.0.2 (mac64, Python) logging started Wed Apr 19 14:32:20 2017


Gurobi 7.0.2 (mac64, Python) logging started Wed Apr 19 14:33:49 2017


Gurobi 7.0.2 (mac64, Python) logging started Wed Apr 19 14:35:04 2017


Gurobi 7.0.2 (mac64, Python) logging started Wed Apr 19 14:35:50 2017


Gurobi 7.0.2 (mac64, Python) logging started Wed Apr 19 14:36:10 2017


Gurobi 7.0.2 (mac64, Python) logging started Wed Apr 19 14:36:57 2017


Gurobi 7.0.2 (mac64, Python) logging started Wed Apr 19 14:51:39 2017


Gurobi 7.0.2 (mac64, Python) logging started Wed Apr 19 17:51:35 2017


Gurobi 7.0.2 (mac64, Python) logging started Thu Apr 20 12:05:12 2017


Gurobi 7.0.2 (mac64, Python) logging started Thu Apr 20 12:05:47 2017


Gurobi 7.0.2 (mac64, Python) logging started Thu Apr 20 12:06:31 2017


Gurobi 7.0.2 (mac64, Python) logging started Thu Apr 20 12:08:48 2017


Gurobi 7.0.2 (mac64, Python) logging started Tue Apr 25 13:47:23 2017


Gurobi 7.0.2 (mac64, Python) logging started Tue Apr 25 14:22:52 2017


Gurobi 7.0.2 (mac64, Python) logging started Tue Apr 25 16:05:13 2017


Gurobi 7.0.2 (mac64, Python) logging started Tue Apr 25 16:06:08 2017


Gurobi 7.0.2 (mac64, Python) logging started Tue Apr 25 17:49:18 2017


Gurobi 7.0.2 (mac64, Python) logging started Tue Apr 25 17:50:25 2017


Gurobi 7.0.2 (mac64, Python) logging started Tue Apr 25 17:51:13 2017


Gurobi 7.0.2 (mac64, Python) logging started Tue Apr 25 17:51:38 2017


Gurobi 7.0.2 (mac64, Python) logging started Wed Apr 26 09:37:04 2017


Gurobi 7.0.2 (mac64, Python) logging started Wed Apr 26 09:37:09 2017


Gurobi 7.0.2 (mac64, Python) logging started Wed Apr 26 09:38:03 2017


Gurobi 7.0.2 (mac64, Python) logging started Wed Apr 26 09:38:08 2017


Gurobi 7.0.2 (mac64, Python) logging started Wed Apr 26 09:38:12 2017


Gurobi 7.0.2 (mac64, Python) logging started Wed Apr 26 09:38:23 2017


Gurobi 7.0.2 (mac64, Python) logging started Wed Apr 26 09:38:32 2017


Gurobi 7.0.2 (mac64, Python) logging started Wed Apr 26 09:39:45 2017


Gurobi 7.0.2 (mac64, Python) logging started Wed Apr 26 09:43:50 2017


Gurobi 7.0.2 (mac64, Python) logging started Wed Apr 26 09:43:58 2017


Gurobi 7.0.2 (mac64, Python) logging started Wed Apr 26 09:44:48 2017


Gurobi 7.0.2 (mac64, Python) logging started Wed Apr 26 09:46:13 2017


Gurobi 7.0.2 (mac64, Python) logging started Wed Apr 26 09:47:08 2017


Gurobi 7.0.2 (mac64, Python) logging started Wed Apr 26 09:47:16 2017


Gurobi 7.0.2 (mac64, Python) logging started Wed Apr 26 09:47:29 2017


Gurobi 7.0.2 (mac64, Python) logging started Wed Apr 26 09:49:26 2017


Gurobi 7.0.2 (mac64, Python) logging started Wed Apr 26 09:50:00 2017


Gurobi 7.0.2 (mac64, Python) logging started Wed Apr 26 09:50:07 2017


Gurobi 7.0.2 (mac64, Python) logging started Wed Apr 26 09:50:11 2017


Gurobi 7.0.2 (mac64, Python) logging started Wed Apr 26 09:50:33 2017


Gurobi 7.0.2 (mac64, Python) logging started Wed Apr 26 09:50:45 2017


Gurobi 7.0.2 (mac64, Python) logging started Wed Apr 26 09:50:56 2017


Gurobi 7.0.2 (mac64, Python) logging started Wed Apr 26 09:51:32 2017


Gurobi 7.0.2 (mac64, Python) logging started Wed Apr 26 09:52:16 2017


Gurobi 7.0.2 (mac64, Python) logging started Wed Apr 26 09:59:27 2017


Gurobi 7.0.2 (mac64, Python) logging started Wed Apr 26 10:55:24 2017


Gurobi 7.0.2 (mac64, Python) logging started Wed Apr 26 11:01:57 2017


Gurobi 7.0.2 (mac64, Python) logging started Wed Apr 26 11:02:50 2017


Gurobi 7.0.2 (mac64, Python) logging started Wed Apr 26 11:10:15 2017


Gurobi 7.0.2 (mac64, Python) logging started Wed Apr 26 11:10:42 2017


Gurobi 7.0.2 (mac64, Python) logging started Wed Apr 26 14:33:35 2017


Gurobi 7.0.2 (mac64, Python) logging started Wed Apr 26 14:34:19 2017


Gurobi 7.0.2 (mac64, Python) logging started Wed Apr 26 14:34:47 2017


Gurobi 7.0.2 (mac64, Python) logging started Wed Apr 26 14:36:19 2017


Gurobi 7.0.2 (mac64, Python) logging started Wed Apr 26 14:36:27 2017


Gurobi 7.0.2 (mac64, Python) logging started Wed Apr 26 14:37:00 2017


Gurobi 7.0.2 (mac64, Python) logging started Wed Apr 26 14:39:58 2017


Gurobi 7.0.2 (mac64, Python) logging started Wed Apr 26 14:41:02 2017


Gurobi 7.0.2 (mac64, Python) logging started Wed Apr 26 16:26:05 2017


Gurobi 7.0.2 (mac64, Python) logging started Wed Apr 26 16:39:43 2017


Gurobi 7.0.2 (mac64, Python) logging started Wed Apr 26 17:01:15 2017


Gurobi 7.0.2 (mac64, Python) logging started Wed Apr 26 17:05:13 2017


Gurobi 7.0.2 (mac64, Python) logging started Thu Apr 27 11:13:07 2017


Gurobi 7.0.2 (mac64, Python) logging started Thu Apr 27 11:14:35 2017


Gurobi 7.0.2 (mac64, Python) logging started Thu Apr 27 11:18:06 2017


Gurobi 7.0.2 (mac64, Python) logging started Thu Apr 27 11:43:51 2017


Gurobi 7.0.2 (mac64, Python) logging started Thu Apr 27 12:09:10 2017


Gurobi 7.0.2 (mac64, Python) logging started Thu Apr 27 12:19:48 2017


Gurobi 7.0.2 (mac64, Python) logging started Thu Apr 27 12:22:10 2017


Gurobi 7.0.2 (mac64, Python) logging started Thu Apr 27 15:25:58 2017


Gurobi 7.0.2 (mac64, Python) logging started Thu Apr 27 15:26:27 2017


Gurobi 7.0.2 (mac64, Python) logging started Thu Apr 27 15:28:32 2017


Gurobi 7.0.2 (mac64, Python) logging started Thu Apr 27 15:29:19 2017


Gurobi 7.0.2 (mac64, Python) logging started Thu Apr 27 15:29:50 2017


Gurobi 7.0.2 (mac64, Python) logging started Thu Apr 27 15:30:47 2017


Gurobi 7.0.2 (mac64, Python) logging started Thu Apr 27 15:43:37 2017


Gurobi 7.0.2 (mac64, Python) logging started Thu Apr 27 15:43:52 2017


Gurobi 7.0.2 (mac64, Python) logging started Thu Apr 27 15:44:41 2017


Gurobi 7.0.2 (mac64, Python) logging started Thu Apr 27 15:45:21 2017


Gurobi 7.0.2 (mac64, Python) logging started Thu Apr 27 15:47:41 2017


Gurobi 7.0.2 (mac64, Python) logging started Thu Apr 27 22:01:42 2017


Gurobi 7.0.2 (mac64, Python) logging started Thu Apr 27 22:01:55 2017


Gurobi 7.0.2 (mac64, Python) logging started Thu Apr 27 22:02:03 2017


Gurobi 7.0.2 (mac64, Python) logging started Thu Apr 27 22:02:43 2017


Gurobi 7.0.2 (mac64, Python) logging started Thu Apr 27 22:02:51 2017


Gurobi 7.0.2 (mac64, Python) logging started Thu Apr 27 22:03:03 2017


Gurobi 7.0.2 (mac64, Python) logging started Thu Apr 27 22:03:30 2017


Gurobi 7.0.2 (mac64, Python) logging started Thu Apr 27 22:03:34 2017


Gurobi 7.0.2 (mac64, Python) logging started Thu Apr 27 22:05:10 2017


Gurobi 7.0.2 (mac64, Python) logging started Fri Apr 28 12:12:06 2017


Gurobi 7.0.2 (mac64, Python) logging started Fri Apr 28 12:18:41 2017


Gurobi 7.0.2 (mac64, Python) logging started Fri Apr 28 12:19:56 2017


Gurobi 7.0.2 (mac64, Python) logging started Fri Apr 28 12:21:18 2017


Gurobi 7.0.2 (mac64, Python) logging started Fri Apr 28 12:24:07 2017


Gurobi 7.0.2 (mac64, Python) logging started Fri Apr 28 12:29:37 2017


Gurobi 7.0.2 (mac64, Python) logging started Fri Apr 28 12:30:56 2017


Gurobi 7.0.2 (mac64, Python) logging started Fri Apr 28 12:31:19 2017


Gurobi 7.0.2 (mac64, Python) logging started Fri Apr 28 12:37:32 2017


Gurobi 7.0.2 (mac64, Python) logging started Fri Apr 28 12:38:30 2017


Gurobi 7.0.2 (mac64, Python) logging started Fri Apr 28 12:39:07 2017


Gurobi 7.0.2 (mac64, Python) logging started Fri Apr 28 12:51:31 2017


Gurobi 7.0.2 (mac64, Python) logging started Fri Apr 28 12:53:28 2017


Gurobi 7.0.2 (mac64, Python) logging started Fri Apr 28 12:54:48 2017


Gurobi 7.0.2 (mac64, Python) logging started Fri Apr 28 12:59:25 2017


Gurobi 7.0.2 (mac64, Python) logging started Fri Apr 28 12:59:37 2017


Gurobi 7.0.2 (mac64, Python) logging started Fri Apr 28 12:59:51 2017


Gurobi 7.0.2 (mac64, Python) logging started Fri Apr 28 13:05:06 2017


Gurobi 7.0.2 (mac64, Python) logging started Fri Apr 28 13:06:47 2017


Gurobi 7.0.2 (mac64, Python) logging started Fri Apr 28 13:07:53 2017


Gurobi 7.0.2 (mac64, Python) logging started Fri Apr 28 13:10:20 2017


Gurobi 7.0.2 (mac64, Python) logging started Fri Apr 28 13:10:48 2017


Gurobi 7.0.2 (mac64, Python) logging started Fri Apr 28 13:11:32 2017


Gurobi 7.0.2 (mac64, Python) logging started Fri Apr 28 13:46:37 2017


Gurobi 7.0.2 (mac64, Python) logging started Fri Apr 28 13:50:34 2017


Gurobi 7.0.2 (mac64, Python) logging started Fri Apr 28 13:52:56 2017


Gurobi 7.0.2 (mac64, Python) logging started Fri Apr 28 14:11:52 2017


Gurobi 7.0.2 (mac64, Python) logging started Fri Apr 28 14:15:09 2017


Gurobi 7.0.2 (mac64, Python) logging started Fri Apr 28 14:16:22 2017


Gurobi 7.0.2 (mac64, Python) logging started Fri Apr 28 14:29:01 2017


Gurobi 7.0.2 (mac64, Python) logging started Fri Apr 28 14:39:11 2017


Gurobi 7.0.2 (mac64, Python) logging started Fri Apr 28 14:51:26 2017


Gurobi 7.0.2 (mac64, Python) logging started Fri Apr 28 15:03:15 2017


Gurobi 7.0.2 (mac64, Python) logging started Fri Apr 28 15:09:49 2017


Gurobi 7.0.2 (mac64, Python) logging started Fri Apr 28 16:07:09 2017


Gurobi 7.0.2 (mac64, Python) logging started Fri Apr 28 16:08:59 2017


Gurobi 7.0.2 (mac64, Python) logging started Fri Apr 28 16:09:23 2017


Gurobi 7.0.2 (mac64, Python) logging started Fri Apr 28 16:15:52 2017


Gurobi 7.0.2 (mac64, Python) logging started Fri Apr 28 16:17:35 2017


Gurobi 7.0.2 (mac64, Python) logging started Fri Apr 28 16:26:08 2017


Gurobi 7.0.2 (mac64, Python) logging started Fri Apr 28 16:28:42 2017


Gurobi 7.0.2 (mac64, Python) logging started Fri Apr 28 16:29:01 2017


Gurobi 7.0.2 (mac64, Python) logging started Fri Apr 28 16:34:18 2017


Gurobi 7.0.2 (mac64, Python) logging started Fri Apr 28 16:35:01 2017


Gurobi 7.0.2 (mac64, Python) logging started Fri Apr 28 16:54:05 2017


Gurobi 7.0.2 (mac64, Python) logging started Tue May  2 16:53:45 2017


Gurobi 7.0.2 (mac64, Python) logging started Tue May  2 16:54:26 2017


Gurobi 7.0.2 (mac64, Python) logging started Tue May  2 16:57:37 2017


Gurobi 7.0.2 (mac64, Python) logging started Tue May  2 16:58:10 2017


Gurobi 7.0.2 (mac64, Python) logging started Tue May  2 16:58:45 2017


Gurobi 7.0.2 (mac64, Python) logging started Tue May  2 17:45:24 2017


Gurobi 7.0.2 (mac64, Python) logging started Tue May  2 17:45:58 2017


Gurobi 7.0.2 (mac64, Python) logging started Tue May  2 17:48:34 2017


Gurobi 7.0.2 (mac64, Python) logging started Tue May  2 17:49:08 2017


Gurobi 7.0.2 (mac64, Python) logging started Tue May  2 17:49:21 2017


Gurobi 7.0.2 (mac64, Python) logging started Tue May  2 18:07:05 2017


Gurobi 7.0.2 (mac64, Python) logging started Tue May  2 18:35:25 2017


Gurobi 7.0.2 (mac64, Python) logging started Tue May  2 18:36:14 2017


Gurobi 7.0.2 (mac64, Python) logging started Tue May  2 18:37:26 2017


Gurobi 7.0.2 (mac64, Python) logging started Tue May  2 18:44:40 2017


Gurobi 7.0.2 (mac64, Python) logging started Tue May  2 19:19:14 2017


Gurobi 7.0.2 (mac64, Python) logging started Tue May  2 19:20:01 2017


Gurobi 7.0.2 (mac64, Python) logging started Tue May  2 19:21:00 2017


Gurobi 7.0.2 (mac64, Python) logging started Tue May  2 19:44:26 2017


Gurobi 7.0.2 (mac64, Python) logging started Tue May  2 19:45:57 2017


Gurobi 7.0.2 (mac64, Python) logging started Tue May  2 19:48:18 2017


Gurobi 7.0.2 (mac64, Python) logging started Tue May  2 19:50:51 2017


Gurobi 7.0.2 (mac64, Python) logging started Tue May  2 20:04:20 2017


Gurobi 7.0.2 (mac64, Python) logging started Tue May  2 20:19:59 2017


Gurobi 7.0.2 (mac64, Python) logging started Tue May  2 20:26:19 2017


Gurobi 7.0.2 (mac64, Python) logging started Wed May  3 00:55:06 2017


Gurobi 7.0.2 (mac64, Python) logging started Wed May  3 01:32:04 2017


Gurobi 7.0.2 (mac64, Python) logging started Fri May  5 17:08:24 2017


Gurobi 7.0.2 (mac64, Python) logging started Fri May  5 19:53:37 2017


Gurobi 7.0.2 (mac64, Python) logging started Fri May  5 19:54:03 2017


Gurobi 7.0.2 (mac64, Python) logging started Fri May  5 20:01:42 2017


Gurobi 7.0.2 (mac64, Python) logging started Fri May  5 21:39:05 2017


Gurobi 7.0.2 (mac64, Python) logging started Fri May  5 23:31:10 2017


Gurobi 7.0.2 (mac64, Python) logging started Sun May  7 00:14:16 2017


Gurobi 7.0.2 (mac64, Python) logging started Sun May  7 01:52:14 2017


Gurobi 7.0.2 (mac64, Python) logging started Sun May  7 02:11:32 2017


Gurobi 7.0.2 (mac64, Python) logging started Sun May  7 03:08:44 2017


Gurobi 7.0.2 (mac64, Python) logging started Sun May  7 03:09:59 2017


Gurobi 7.0.2 (mac64, Python) logging started Sun May  7 14:39:42 2017


Gurobi 7.0.2 (mac64, Python) logging started Sun May  7 14:43:30 2017


Gurobi 7.0.2 (mac64, Python) logging started Sun May  7 14:50:21 2017


Gurobi 7.0.2 (mac64, Python) logging started Sun May  7 15:20:30 2017


Gurobi 7.0.2 (mac64, Python) logging started Sun May  7 15:20:53 2017


Gurobi 7.0.2 (mac64, Python) logging started Sun May  7 16:08:57 2017


Gurobi 7.0.2 (mac64, Python) logging started Mon May  8 15:56:48 2017


Gurobi 7.0.2 (mac64, Python) logging started Mon May  8 16:00:03 2017


Gurobi 7.0.2 (mac64, Python) logging started Mon May  8 16:02:01 2017


Gurobi 7.0.2 (mac64, Python) logging started Mon May  8 16:03:34 2017


Gurobi 7.0.2 (mac64, Python) logging started Mon May  8 16:04:07 2017


Gurobi 7.0.2 (mac64, Python) logging started Mon May  8 16:13:37 2017


Gurobi 7.0.2 (mac64, Python) logging started Mon May  8 16:16:17 2017


Gurobi 7.0.2 (mac64, Python) logging started Mon May  8 16:55:21 2017


Gurobi 7.0.2 (mac64, Python) logging started Mon May  8 16:56:12 2017


Gurobi 7.0.2 (mac64, Python) logging started Mon May  8 16:57:48 2017


Gurobi 7.0.2 (mac64, Python) logging started Mon May  8 17:07:11 2017


Gurobi 7.0.2 (mac64, Python) logging started Mon May  8 17:08:49 2017


Gurobi 7.0.2 (mac64, Python) logging started Mon May  8 17:22:42 2017


Gurobi 7.0.2 (mac64, Python) logging started Mon May  8 17:23:27 2017


Gurobi 7.0.2 (mac64, Python) logging started Mon May  8 17:24:18 2017

